pre = 
[| 0, 0, 0, 0, 0, 0, 0, 0, 0
  | 0, 0, 4, 0, 0, 0, 0, 9, 3
  | 0, 0, 0, 0, 0, 3, 4, 5, 0
  | 0, 2, 1, 0, 3, 8, 6, 4, 0
  | 0, 0, 0, 0, 5, 7, 9, 8, 1
  | 0, 0, 0, 0, 6, 1, 0, 0, 2
  | 0, 0, 0, 0, 0, 0, 0, 0, 0
  | 1, 0, 5, 3, 0, 0, 0, 0, 0
  | 6, 4, 0, 8, 0, 0, 0, 0, 0
|];
